\ This file has been generated by DOcplex
\ ENCODING=ISO-8859-1
\Problem name: broadcastChannel problem

Maximize
 obj: 0.040500000000 aj_u0_x2 + 0.940500000000 aj_u1_x2
      + 0.045000000000 aj_u2_x2 + 0.045000000000 aj_u3_x2
      + 0.004500000000 aj_u0_x3 + 0.145000000000 aj_u1_x3
      + 0.105000000000 aj_u2_x3 + 0.050000000000 aj_u3_x3
Subject To
 c1: - 0.045000000000 aj_u0_x0 - 0.045000000000 aj_u1_x0
     - 0.045000000000 aj_u2_x0 - 0.045000000000 aj_u3_x0 + 0.045000000000 a0_u0
     + 0.045000000000 a0_u1 >= 0
 c2: - 0.045000000000 aj_u0_x0 - 0.045000000000 aj_u1_x0
     - 0.045000000000 aj_u2_x0 - 0.045000000000 aj_u3_x0 + 0.045000000000 a0_u0
     + 0.045000000000 a0_u1 >= 0
 c3: - 0.045000000000 aj_u0_x1 - 0.450000000000 aj_u1_x1
     - 1.045000000000 aj_u2_x1 - 0.450000000000 aj_u3_x1 + 0.045000000000 a0_u0
     + 1.045000000000 a0_u1 >= 0
 c4: - 0.045000000000 aj_u0_x1 - 0.450000000000 aj_u1_x1
     - 1.045000000000 aj_u2_x1 - 0.450000000000 aj_u3_x1 + 0.450000000000 a0_u0
     + 0.450000000000 a0_u1 >= 0
 c5: - 0.045000000000 aj_u0_x2 - 1.045000000000 aj_u1_x2
     - 0.050000000000 aj_u2_x2 - 0.050000000000 aj_u3_x2 + 0.045000000000 a0_u0
     + 0.050000000000 a0_u1 >= 0
 c6: - 0.045000000000 aj_u0_x2 - 1.045000000000 aj_u1_x2
     - 0.050000000000 aj_u2_x2 - 0.050000000000 aj_u3_x2 + 1.045000000000 a0_u0
     + 0.050000000000 a0_u1 >= 0
 c7: - 0.045000000000 aj_u0_x3 - 1.450000000000 aj_u1_x3
     - 1.050000000000 aj_u2_x3 - 0.500000000000 aj_u3_x3 + 0.045000000000 a0_u0
     + 1.050000000000 a0_u1 >= 0
 c8: - 0.045000000000 aj_u0_x3 - 1.450000000000 aj_u1_x3
     - 1.050000000000 aj_u2_x3 - 0.500000000000 aj_u3_x3 + 1.450000000000 a0_u0
     + 0.500000000000 a0_u1 >= 0
 c9: a0_u0 + a0_u1 = 1
 c10: a1_u0_x0 + a1_u1_x0 = 1
 c11: aj_u0_x0 + aj_u1_x0 + aj_u2_x0 + aj_u3_x0 = 1
 c12: a1_u0_x1 + a1_u1_x1 = 1
 c13: aj_u0_x1 + aj_u1_x1 + aj_u2_x1 + aj_u3_x1 = 1
 c14: a1_u0_x2 + a1_u1_x2 = 1
 c15: aj_u0_x2 + aj_u1_x2 + aj_u2_x2 + aj_u3_x2 = 1
 c16: a1_u0_x3 + a1_u1_x3 = 1
 c17: aj_u0_x3 + aj_u1_x3 + aj_u2_x3 + aj_u3_x3 = 1
 c18: aj_u0_x0 + aj_u1_x0 - a0_u0 = 0
 c19: aj_u2_x0 + aj_u3_x0 - a0_u1 = 0
 c20: aj_u0_x1 + aj_u1_x1 - a0_u0 = 0
 c21: aj_u2_x1 + aj_u3_x1 - a0_u1 = 0
 c22: aj_u0_x2 + aj_u1_x2 - a0_u0 = 0
 c23: aj_u2_x2 + aj_u3_x2 - a0_u1 = 0
 c24: aj_u0_x3 + aj_u1_x3 - a0_u0 = 0
 c25: aj_u2_x3 + aj_u3_x3 - a0_u1 = 0
 c26: aj_u0_x0 + aj_u2_x0 - a1_u0_x0 = 0
 c27: aj_u1_x0 + aj_u3_x0 - a1_u1_x0 = 0
 c28: aj_u0_x1 + aj_u2_x1 - a1_u0_x1 = 0
 c29: aj_u1_x1 + aj_u3_x1 - a1_u1_x1 = 0
 c30: aj_u0_x2 + aj_u2_x2 - a1_u0_x2 = 0
 c31: aj_u1_x2 + aj_u3_x2 - a1_u1_x2 = 0
 c32: aj_u0_x3 + aj_u2_x3 - a1_u0_x3 = 0
 c33: aj_u1_x3 + aj_u3_x3 - a1_u1_x3 = 0

Bounds
       a0_u0 <= 1
       a0_u1 <= 1
 0 <= a1_u0_x0 <= 1
 0 <= a1_u1_x0 <= 1
       aj_u0_x0 <= 1
       aj_u1_x0 <= 1
       aj_u2_x0 <= 1
       aj_u3_x0 <= 1
 0 <= a1_u0_x1 <= 1
 0 <= a1_u1_x1 <= 1
       aj_u0_x1 <= 1
       aj_u1_x1 <= 1
       aj_u2_x1 <= 1
       aj_u3_x1 <= 1
 0 <= a1_u0_x2 <= 1
 0 <= a1_u1_x2 <= 1
       aj_u0_x2 <= 1
       aj_u1_x2 <= 1
       aj_u2_x2 <= 1
       aj_u3_x2 <= 1
 0 <= a1_u0_x3 <= 1
 0 <= a1_u1_x3 <= 1
       aj_u0_x3 <= 1
       aj_u1_x3 <= 1
       aj_u2_x3 <= 1
       aj_u3_x3 <= 1

Binaries
 a1_u0_x0 a1_u1_x0 a1_u0_x1 a1_u1_x1 a1_u0_x2 a1_u1_x2 a1_u0_x3 a1_u1_x3
End
